%% Nonogram problem: P199, difficulty 8
%% From http://87.230.22.228/examples/nono_regular.ecl.txt
rows = 20;
row_rule_len = 6;
row_rules = array2d(1..rows, 1..row_rule_len, 
 [
  0,0,0,1,1,4,
  0,0,0,0,1,6,
  1,1,1,1,2,3,
  0,0,1,1,2,3,
  0,0,3,1,2,3,
  0,0,4,5,2,2,
  0,0,0,7,3,2,
  0,0,3,5,1,2,
  0,0,2,2,4,1,
  0,0,2,2,3,4,
  0,0,0,2,5,2,
  0,0,2,1,5,1,
  0,0,2,2,3,1,
  0,0,0,6,2,2,
  0,0,0,0,1,7,
  0,0,0,2,2,2,
  0,0,0,0,1,4,
  0,0,0,3,1,1,
  0,0,0,0,1,1,
  0,0,0,0,1,1
  ]);

cols = 20;
col_rule_len = 5;
col_rules = array2d(1..cols, 1..col_rule_len,
 [
  0,0,0,6,1,
  0,0,0,8,3,
  0,0,3,2,1,
  1,1,2,2,1,
  1,2,2,1,1,
  0,1,1,1,1,
  0,0,0,2,3,
  0,4,1,2,2,
  0,0,5,2,1,
  0,0,8,1,1,
  0,0,0,7,2,
  0,0,3,5,2,
  0,0,0,2,5,
  0,0,2,1,4,
  0,2,2,2,2,
  2,2,1,1,1,
  3,1,1,1,1,
  0,5,4,2,1,
  0,7,4,1,1,
  0,0,0,0,4
  ]);
